 Minimize
[ 1.0000000000000000 Z0 * Z187  ]
Subject to
c1: [ 1.0000000000000000 Z0 * Z69  + 1.0000000000000000 Z0 * Z70  + 1.0000000000000000 Z0 * Z71  + 1.0000000000000000 Z0 * Z72  + 1.0000000000000000 Z0 * Z73  + 1.0000000000000000 Z0 * Z74  + 1.0000000000000000 Z0 * Z75  + 1.0000000000000000 Z0 * Z76  + 1.0000000000000000 Z0 * Z77  + 1.0000000000000000 Z0 * Z78  + 1.0000000000000000 Z0 * Z79  + 1.0000000000000000 Z0 * Z80  + 1.0000000000000000 Z0 * Z81  + 1.0000000000000000 Z0 * Z82  + 1.0000000000000000 Z0 * Z83 -1.0000000000000000 Z0 * Z187  ] = 0.000000
c2: [ 1.0000000000000000 Z0 * Z148 -2.0200000000000000 Z1 * Z39  ] >= 0.000000
c3: [ 1.0000000000000000 Z0 * Z149 -2.0200000000000000 Z2 * Z40  ] >= 0.000000
c4: [ 1.0000000000000000 Z0 * Z150 -4.0133333333333399 Z3 * Z41  ] >= 0.000000
c5: [ 1.0000000000000000 Z0 * Z151 -4.0133333333333399 Z4 * Z42  ] >= 0.000000
c6: [ 1.0000000000000000 Z0 * Z152 -4.7599999999999998 Z5 * Z43  ] >= 0.000000
c7: [ 1.0000000000000000 Z0 * Z153 -4.7599999999999998 Z6 * Z44  ] >= 0.000000
c8: [ 1.0000000000000000 Z0 * Z154 -1.0000000000000000 Z45 * Z188  ] >= 0.000000
c9: [ 1.0000000000000000 Z0 * Z155 -1.0000000000000000 Z46 * Z189  ] >= 0.000000
c10: [ 1.0000000000000000 Z0 * Z156 -1.0000000000000000 Z47 * Z190  ] >= 0.000000
c11: [ 1.0000000000000000 Z0 * Z157 -1.0000000000000000 Z48 * Z191  ] >= 0.000000
c12: [ 1.0000000000000000 Z0 * Z158 -1.0000000000000000 Z49 * Z192  ] >= 0.000000
c13: [ 1.0000000000000000 Z0 * Z159 -1.0000000000000000 Z50 * Z193  ] >= 0.000000
c14: [ 1.0000000000000000 Z0 * Z160 -6.5933333333333399 Z13 * Z51  ] >= 0.000000
c15: [ 1.0000000000000000 Z0 * Z161 -6.5933333333333399 Z14 * Z52  ] >= 0.000000
c16: [ 1.0000000000000000 Z0 * Z162 -1.0000000000000000 Z53 * Z194  ] >= 0.000000
c17: [ 1.0000000000000000 Z0 * Z163 -1.0000000000000000 Z54 * Z195  ] >= 0.000000
c18: [ 1.0000000000000000 Z0 * Z164 -1.0000000000000000 Z55 * Z196  ] >= 0.000000
c19: [ 1.0000000000000000 Z0 * Z165 -1.0000000000000000 Z56 * Z197  ] >= 0.000000
c20: [ 1.0000000000000000 Z0 * Z166 -1.0000000000000000 Z57 * Z198  ] >= 0.000000
c21: [ 1.0000000000000000 Z0 * Z167 -1.0000000000000000 Z58 * Z199  ] >= 0.000000
c22: [ 1.0000000000000000 Z0 * Z168 -1.0000000000000000 Z59 * Z200  ] >= 0.000000
c23: [ 1.0000000000000000 Z0 * Z169 -1.0000000000000000 Z60 * Z201  ] >= 0.000000
c24: [ 1.0000000000000000 Z0 * Z170 -80.9066666666665952 Z23 * Z61  ] >= 0.000000
c25: [ 1.0000000000000000 Z0 * Z171 -80.9066666666665952 Z24 * Z62  ] >= 0.000000
c26: [ 1.0000000000000000 Z0 * Z172 -26.1466666666666008 Z25 * Z63  ] >= 0.000000
c27: [ 1.0000000000000000 Z0 * Z173 -26.1466666666666008 Z26 * Z64  ] >= 0.000000
c28: [ 1.0000000000000000 Z0 * Z174 -38.0000000000000000 Z27 * Z65  ] >= 0.000000
c29: [ 1.0000000000000000 Z0 * Z175 -38.0000000000000000 Z28 * Z66  ] >= 0.000000
c30: [ 1.0000000000000000 Z0 * Z176 -1.0000000000000000 Z67 * Z202  ] >= 0.000000
c31: [ 1.0000000000000000 Z0 * Z177 -1.0000000000000000 Z68 * Z203  ] >= 0.000000
c32: [ 1.0000000000000000 Z0 * Z39  + 1.0000000000000000 Z0 * Z40  ] = 1.000000
c33: [ 1.0000000000000000 Z0 * Z41  + 1.0000000000000000 Z0 * Z42  ] = 1.000000
c34: [ 1.0000000000000000 Z0 * Z43  + 1.0000000000000000 Z0 * Z44  ] = 1.000000
c35: [ 1.0000000000000000 Z0 * Z45  + 1.0000000000000000 Z0 * Z46  ] = 1.000000
c36: [ 1.0000000000000000 Z0 * Z47  + 1.0000000000000000 Z0 * Z48  ] = 1.000000
c37: [ 1.0000000000000000 Z0 * Z49  + 1.0000000000000000 Z0 * Z50  ] = 1.000000
c38: [ 1.0000000000000000 Z0 * Z51  + 1.0000000000000000 Z0 * Z52  ] = 1.000000
c39: [ 1.0000000000000000 Z0 * Z53  + 1.0000000000000000 Z0 * Z54  ] = 1.000000
c40: [ 1.0000000000000000 Z0 * Z55  + 1.0000000000000000 Z0 * Z56  ] = 1.000000
c41: [ 1.0000000000000000 Z0 * Z57  + 1.0000000000000000 Z0 * Z58  ] = 1.000000
c42: [ 1.0000000000000000 Z0 * Z59  + 1.0000000000000000 Z0 * Z60  ] = 1.000000
c43: [ 1.0000000000000000 Z0 * Z61  + 1.0000000000000000 Z0 * Z62  ] = 1.000000
c44: [ 1.0000000000000000 Z0 * Z63  + 1.0000000000000000 Z0 * Z64  ] = 1.000000
c45: [ 1.0000000000000000 Z0 * Z65  + 1.0000000000000000 Z0 * Z66  ] = 1.000000
c46: [ 1.0000000000000000 Z0 * Z67  + 1.0000000000000000 Z0 * Z68  ] = 1.000000
c47: [ 2.0200000000000000 Z0 * Z39  + 4.0133333333333301 Z0 * Z41  + 4.7599999999999998 Z0 * Z43  + 5.9600000000000000 Z0 * Z45  + 42.0933333333332982 Z0 * Z47  + 99.2800000000000011 Z0 * Z49  + 6.5933333333333302 Z0 * Z51  + 61.8666666666667027 Z0 * Z53  + 56.2866666666666973 Z0 * Z55  + 41.5000000000000000 Z0 * Z57  + 62.4933333333332968 Z0 * Z59  + 80.9066666666666947 Z0 * Z61  + 26.1466666666667003 Z0 * Z63  + 38.0000000000000000 Z0 * Z65  + 62.2400000000000020 Z0 * Z67  ] <= 302.080000
c48: [ 2.0200000000000000 Z0 * Z40  + 4.0133333333333301 Z0 * Z42  + 4.7599999999999998 Z0 * Z44  + 5.9600000000000000 Z0 * Z46  + 42.0933333333332982 Z0 * Z48  + 99.2800000000000011 Z0 * Z50  + 6.5933333333333302 Z0 * Z52  + 61.8666666666667027 Z0 * Z54  + 56.2866666666666973 Z0 * Z56  + 41.5000000000000000 Z0 * Z58  + 62.4933333333332968 Z0 * Z60  + 80.9066666666666947 Z0 * Z62  + 26.1466666666667003 Z0 * Z64  + 38.0000000000000000 Z0 * Z66  + 62.2400000000000020 Z0 * Z68  ] <= 302.080000
c49: [ 1.0000000000000000 Z0 * Z84  + 1.0000000000000000 Z0 * Z88  ] >= 0.294241
c50: [ 1.0000000000000000 Z0 * Z85  + 1.0000000000000000 Z0 * Z89  ] >= 0.294241
c51: [ 1.0000000000000000 Z0 * Z84  + 1.0000000000000000 Z0 * Z90  ] >= 0.297602
c52: [ 1.0000000000000000 Z0 * Z85  + 1.0000000000000000 Z0 * Z91  ] >= 0.297602
c53: [ 1.0000000000000000 Z0 * Z84  + 1.0000000000000000 Z0 * Z92  ] >= 0.351495
c54: [ 1.0000000000000000 Z0 * Z85  + 1.0000000000000000 Z0 * Z93  ] >= 0.351495
c55: [ 1.0000000000000000 Z0 * Z84  + 1.0000000000000000 Z0 * Z94  ] >= 0.304583
c56: [ 1.0000000000000000 Z0 * Z85  + 1.0000000000000000 Z0 * Z95  ] >= 0.304583
c57: [ 1.0000000000000000 Z0 * Z84  + 1.0000000000000000 Z0 * Z96  ] >= 0.299511
c58: [ 1.0000000000000000 Z0 * Z85  + 1.0000000000000000 Z0 * Z97  ] >= 0.299511
c59: [ 1.0000000000000000 Z0 * Z84  + 1.0000000000000000 Z0 * Z98  ] >= 0.306944
c60: [ 1.0000000000000000 Z0 * Z85  + 1.0000000000000000 Z0 * Z99  ] >= 0.306944
c61: [ 1.0000000000000000 Z0 * Z84  + 1.0000000000000000 Z0 * Z100  ] >= 0.335207
c62: [ 1.0000000000000000 Z0 * Z85  + 1.0000000000000000 Z0 * Z101  ] >= 0.335207
c63: [ 1.0000000000000000 Z0 * Z84  + 1.0000000000000000 Z0 * Z102  ] >= 0.340007
c64: [ 1.0000000000000000 Z0 * Z85  + 1.0000000000000000 Z0 * Z103  ] >= 0.340007
c65: [ 1.0000000000000000 Z0 * Z84  + 1.0000000000000000 Z0 * Z104  ] >= 0.352271
c66: [ 1.0000000000000000 Z0 * Z85  + 1.0000000000000000 Z0 * Z105  ] >= 0.352271
c67: [ 1.0000000000000000 Z0 * Z84  + 1.0000000000000000 Z0 * Z106  ] >= 0.342257
c68: [ 1.0000000000000000 Z0 * Z85  + 1.0000000000000000 Z0 * Z107  ] >= 0.342257
c69: [ 1.0000000000000000 Z0 * Z84  + 1.0000000000000000 Z0 * Z108  ] >= 0.327766
c70: [ 1.0000000000000000 Z0 * Z85  + 1.0000000000000000 Z0 * Z109  ] >= 0.327766
c71: [ 1.0000000000000000 Z0 * Z84  + 1.0000000000000000 Z0 * Z110  ] >= 0.304383
c72: [ 1.0000000000000000 Z0 * Z85  + 1.0000000000000000 Z0 * Z111  ] >= 0.304383
c73: [ 1.0000000000000000 Z0 * Z84  + 1.0000000000000000 Z0 * Z112  ] >= 0.285383
c74: [ 1.0000000000000000 Z0 * Z85  + 1.0000000000000000 Z0 * Z113  ] >= 0.285383
c75: [ 1.0000000000000000 Z0 * Z84  + 1.0000000000000000 Z0 * Z114  ] >= 0.279506
c76: [ 1.0000000000000000 Z0 * Z85  + 1.0000000000000000 Z0 * Z115  ] >= 0.279506
c77: [ -1.0000000000000000 Z0 * Z84  + 1.0000000000000000 Z0 * Z88  ] >= -0.294241
c78: [ -1.0000000000000000 Z0 * Z85  + 1.0000000000000000 Z0 * Z89  ] >= -0.294241
c79: [ -1.0000000000000000 Z0 * Z84  + 1.0000000000000000 Z0 * Z90  ] >= -0.297602
c80: [ -1.0000000000000000 Z0 * Z85  + 1.0000000000000000 Z0 * Z91  ] >= -0.297602
c81: [ -1.0000000000000000 Z0 * Z84  + 1.0000000000000000 Z0 * Z92  ] >= -0.351495
c82: [ -1.0000000000000000 Z0 * Z85  + 1.0000000000000000 Z0 * Z93  ] >= -0.351495
c83: [ -1.0000000000000000 Z0 * Z84  + 1.0000000000000000 Z0 * Z94  ] >= -0.304583
c84: [ -1.0000000000000000 Z0 * Z85  + 1.0000000000000000 Z0 * Z95  ] >= -0.304583
c85: [ -1.0000000000000000 Z0 * Z84  + 1.0000000000000000 Z0 * Z96  ] >= -0.299511
c86: [ -1.0000000000000000 Z0 * Z85  + 1.0000000000000000 Z0 * Z97  ] >= -0.299511
c87: [ -1.0000000000000000 Z0 * Z84  + 1.0000000000000000 Z0 * Z98  ] >= -0.306944
c88: [ -1.0000000000000000 Z0 * Z85  + 1.0000000000000000 Z0 * Z99  ] >= -0.306944
c89: [ -1.0000000000000000 Z0 * Z84  + 1.0000000000000000 Z0 * Z100  ] >= -0.335207
c90: [ -1.0000000000000000 Z0 * Z85  + 1.0000000000000000 Z0 * Z101  ] >= -0.335207
c91: [ -1.0000000000000000 Z0 * Z84  + 1.0000000000000000 Z0 * Z102  ] >= -0.340007
c92: [ -1.0000000000000000 Z0 * Z85  + 1.0000000000000000 Z0 * Z103  ] >= -0.340007
c93: [ -1.0000000000000000 Z0 * Z84  + 1.0000000000000000 Z0 * Z106  ] >= -0.342257
c94: [ -1.0000000000000000 Z0 * Z85  + 1.0000000000000000 Z0 * Z107  ] >= -0.342257
c95: [ -1.0000000000000000 Z0 * Z84  + 1.0000000000000000 Z0 * Z108  ] >= -0.327766
c96: [ -1.0000000000000000 Z0 * Z85  + 1.0000000000000000 Z0 * Z109  ] >= -0.327766
c97: [ -1.0000000000000000 Z0 * Z84  + 1.0000000000000000 Z0 * Z110  ] >= -0.304383
c98: [ -1.0000000000000000 Z0 * Z85  + 1.0000000000000000 Z0 * Z111  ] >= -0.304383
c99: [ -1.0000000000000000 Z0 * Z84  + 1.0000000000000000 Z0 * Z112  ] >= -0.285383
c100: [ -1.0000000000000000 Z0 * Z85  + 1.0000000000000000 Z0 * Z113  ] >= -0.285383
c101: [ -1.0000000000000000 Z0 * Z84  + 1.0000000000000000 Z0 * Z114  ] >= -0.279506
c102: [ -1.0000000000000000 Z0 * Z85  + 1.0000000000000000 Z0 * Z115  ] >= -0.279506
c103: [ -1.0000000000000000 Z0 * Z84  + 1.0000000000000000 Z0 * Z116  ] >= -0.257890
c104: [ -1.0000000000000000 Z0 * Z85  + 1.0000000000000000 Z0 * Z117  ] >= -0.257890
c105: [ 1.0000000000000000 Z0 * Z86  + 1.0000000000000000 Z0 * Z120  ] >= -0.953694
c106: [ 1.0000000000000000 Z0 * Z87  + 1.0000000000000000 Z0 * Z121  ] >= -0.953694
c107: [ 1.0000000000000000 Z0 * Z86  + 1.0000000000000000 Z0 * Z122  ] >= -0.900490
c108: [ 1.0000000000000000 Z0 * Z87  + 1.0000000000000000 Z0 * Z123  ] >= -0.900490
c109: [ 1.0000000000000000 Z0 * Z86  + 1.0000000000000000 Z0 * Z124  ] >= -0.911403
c110: [ 1.0000000000000000 Z0 * Z87  + 1.0000000000000000 Z0 * Z125  ] >= -0.911403
c111: [ 1.0000000000000000 Z0 * Z86  + 1.0000000000000000 Z0 * Z126  ] >= -0.900715
c112: [ 1.0000000000000000 Z0 * Z87  + 1.0000000000000000 Z0 * Z127  ] >= -0.900715
c113: [ 1.0000000000000000 Z0 * Z86  + 1.0000000000000000 Z0 * Z128  ] >= -0.880431
c114: [ 1.0000000000000000 Z0 * Z87  + 1.0000000000000000 Z0 * Z129  ] >= -0.880431
c115: [ 1.0000000000000000 Z0 * Z86  + 1.0000000000000000 Z0 * Z130  ] >= -0.868025
c116: [ 1.0000000000000000 Z0 * Z87  + 1.0000000000000000 Z0 * Z131  ] >= -0.868025
c117: [ 1.0000000000000000 Z0 * Z86  + 1.0000000000000000 Z0 * Z132  ] >= -0.810348
c118: [ 1.0000000000000000 Z0 * Z87  + 1.0000000000000000 Z0 * Z133  ] >= -0.810348
c119: [ 1.0000000000000000 Z0 * Z86  + 1.0000000000000000 Z0 * Z134  ] >= -0.808431
c120: [ 1.0000000000000000 Z0 * Z87  + 1.0000000000000000 Z0 * Z135  ] >= -0.808431
c121: [ 1.0000000000000000 Z0 * Z86  + 1.0000000000000000 Z0 * Z136  ] >= -0.779447
c122: [ 1.0000000000000000 Z0 * Z87  + 1.0000000000000000 Z0 * Z137  ] >= -0.779447
c123: [ 1.0000000000000000 Z0 * Z86  + 1.0000000000000000 Z0 * Z138  ] >= -0.799309
c124: [ 1.0000000000000000 Z0 * Z87  + 1.0000000000000000 Z0 * Z139  ] >= -0.799309
c125: [ 1.0000000000000000 Z0 * Z86  + 1.0000000000000000 Z0 * Z140  ] >= -0.842807
c126: [ 1.0000000000000000 Z0 * Z87  + 1.0000000000000000 Z0 * Z141  ] >= -0.842807
c127: [ 1.0000000000000000 Z0 * Z86  + 1.0000000000000000 Z0 * Z142  ] >= -0.813792
c128: [ 1.0000000000000000 Z0 * Z87  + 1.0000000000000000 Z0 * Z143  ] >= -0.813792
c129: [ 1.0000000000000000 Z0 * Z86  + 1.0000000000000000 Z0 * Z144  ] >= -0.824572
c130: [ 1.0000000000000000 Z0 * Z87  + 1.0000000000000000 Z0 * Z145  ] >= -0.824572
c131: [ 1.0000000000000000 Z0 * Z86  + 1.0000000000000000 Z0 * Z146  ] >= -0.802264
c132: [ 1.0000000000000000 Z0 * Z87  + 1.0000000000000000 Z0 * Z147  ] >= -0.802264
c133: [ -1.0000000000000000 Z0 * Z86  + 1.0000000000000000 Z0 * Z118  ] >= 0.984936
c134: [ -1.0000000000000000 Z0 * Z87  + 1.0000000000000000 Z0 * Z119  ] >= 0.984936
c135: [ -1.0000000000000000 Z0 * Z86  + 1.0000000000000000 Z0 * Z120  ] >= 0.953694
c136: [ -1.0000000000000000 Z0 * Z87  + 1.0000000000000000 Z0 * Z121  ] >= 0.953694
c137: [ -1.0000000000000000 Z0 * Z86  + 1.0000000000000000 Z0 * Z122  ] >= 0.900490
c138: [ -1.0000000000000000 Z0 * Z87  + 1.0000000000000000 Z0 * Z123  ] >= 0.900490
c139: [ -1.0000000000000000 Z0 * Z86  + 1.0000000000000000 Z0 * Z124  ] >= 0.911403
c140: [ -1.0000000000000000 Z0 * Z87  + 1.0000000000000000 Z0 * Z125  ] >= 0.911403
c141: [ -1.0000000000000000 Z0 * Z86  + 1.0000000000000000 Z0 * Z126  ] >= 0.900715
c142: [ -1.0000000000000000 Z0 * Z87  + 1.0000000000000000 Z0 * Z127  ] >= 0.900715
c143: [ -1.0000000000000000 Z0 * Z86  + 1.0000000000000000 Z0 * Z128  ] >= 0.880431
c144: [ -1.0000000000000000 Z0 * Z87  + 1.0000000000000000 Z0 * Z129  ] >= 0.880431
c145: [ -1.0000000000000000 Z0 * Z86  + 1.0000000000000000 Z0 * Z130  ] >= 0.868025
c146: [ -1.0000000000000000 Z0 * Z87  + 1.0000000000000000 Z0 * Z131  ] >= 0.868025
c147: [ -1.0000000000000000 Z0 * Z86  + 1.0000000000000000 Z0 * Z132  ] >= 0.810348
c148: [ -1.0000000000000000 Z0 * Z87  + 1.0000000000000000 Z0 * Z133  ] >= 0.810348
c149: [ -1.0000000000000000 Z0 * Z86  + 1.0000000000000000 Z0 * Z134  ] >= 0.808431
c150: [ -1.0000000000000000 Z0 * Z87  + 1.0000000000000000 Z0 * Z135  ] >= 0.808431
c151: [ -1.0000000000000000 Z0 * Z86  + 1.0000000000000000 Z0 * Z138  ] >= 0.799309
c152: [ -1.0000000000000000 Z0 * Z87  + 1.0000000000000000 Z0 * Z139  ] >= 0.799309
c153: [ -1.0000000000000000 Z0 * Z86  + 1.0000000000000000 Z0 * Z140  ] >= 0.842807
c154: [ -1.0000000000000000 Z0 * Z87  + 1.0000000000000000 Z0 * Z141  ] >= 0.842807
c155: [ -1.0000000000000000 Z0 * Z86  + 1.0000000000000000 Z0 * Z142  ] >= 0.813792
c156: [ -1.0000000000000000 Z0 * Z87  + 1.0000000000000000 Z0 * Z143  ] >= 0.813792
c157: [ -1.0000000000000000 Z0 * Z86  + 1.0000000000000000 Z0 * Z144  ] >= 0.824572
c158: [ -1.0000000000000000 Z0 * Z87  + 1.0000000000000000 Z0 * Z145  ] >= 0.824572
c159: [ -1.0000000000000000 Z0 * Z86  + 1.0000000000000000 Z0 * Z146  ] >= 0.802264
c160: [ -1.0000000000000000 Z0 * Z87  + 1.0000000000000000 Z0 * Z147  ] >= 0.802264
c161: [ 1.0000000000000000 Z0 * Z1 -1.0000000000000000 Z0 * Z88 -1.0000000000000000 Z0 * Z118  ] = 0.000000
c162: [ 1.0000000000000000 Z0 * Z2 -1.0000000000000000 Z0 * Z89 -1.0000000000000000 Z0 * Z119  ] = 0.000000
c163: [ 1.0000000000000000 Z0 * Z3 -1.0000000000000000 Z0 * Z90 -1.0000000000000000 Z0 * Z120  ] = 0.000000
c164: [ 1.0000000000000000 Z0 * Z4 -1.0000000000000000 Z0 * Z91 -1.0000000000000000 Z0 * Z121  ] = 0.000000
c165: [ 1.0000000000000000 Z0 * Z5 -1.0000000000000000 Z0 * Z92 -1.0000000000000000 Z0 * Z122  ] = 0.000000
c166: [ 1.0000000000000000 Z0 * Z6 -1.0000000000000000 Z0 * Z93 -1.0000000000000000 Z0 * Z123  ] = 0.000000
c167: [ 1.0000000000000000 Z0 * Z7 -1.0000000000000000 Z0 * Z94 -1.0000000000000000 Z0 * Z124  ] = 0.000000
c168: [ 1.0000000000000000 Z0 * Z8 -1.0000000000000000 Z0 * Z95 -1.0000000000000000 Z0 * Z125  ] = 0.000000
c169: [ 1.0000000000000000 Z0 * Z9 -1.0000000000000000 Z0 * Z96 -1.0000000000000000 Z0 * Z126  ] = 0.000000
c170: [ 1.0000000000000000 Z0 * Z10 -1.0000000000000000 Z0 * Z97 -1.0000000000000000 Z0 * Z127  ] = 0.000000
c171: [ 1.0000000000000000 Z0 * Z11 -1.0000000000000000 Z0 * Z98 -1.0000000000000000 Z0 * Z128  ] = 0.000000
c172: [ 1.0000000000000000 Z0 * Z12 -1.0000000000000000 Z0 * Z99 -1.0000000000000000 Z0 * Z129  ] = 0.000000
c173: [ 1.0000000000000000 Z0 * Z13 -1.0000000000000000 Z0 * Z100 -1.0000000000000000 Z0 * Z130  ] = 0.000000
c174: [ 1.0000000000000000 Z0 * Z14 -1.0000000000000000 Z0 * Z101 -1.0000000000000000 Z0 * Z131  ] = 0.000000
c175: [ 1.0000000000000000 Z0 * Z15 -1.0000000000000000 Z0 * Z102 -1.0000000000000000 Z0 * Z132  ] = 0.000000
c176: [ 1.0000000000000000 Z0 * Z16 -1.0000000000000000 Z0 * Z103 -1.0000000000000000 Z0 * Z133  ] = 0.000000
c177: [ 1.0000000000000000 Z0 * Z17 -1.0000000000000000 Z0 * Z104 -1.0000000000000000 Z0 * Z134  ] = 0.000000
c178: [ 1.0000000000000000 Z0 * Z18 -1.0000000000000000 Z0 * Z105 -1.0000000000000000 Z0 * Z135  ] = 0.000000
c179: [ 1.0000000000000000 Z0 * Z19 -1.0000000000000000 Z0 * Z106 -1.0000000000000000 Z0 * Z136  ] = 0.000000
c180: [ 1.0000000000000000 Z0 * Z20 -1.0000000000000000 Z0 * Z107 -1.0000000000000000 Z0 * Z137  ] = 0.000000
c181: [ 1.0000000000000000 Z0 * Z21 -1.0000000000000000 Z0 * Z108 -1.0000000000000000 Z0 * Z138  ] = 0.000000
c182: [ 1.0000000000000000 Z0 * Z22 -1.0000000000000000 Z0 * Z109 -1.0000000000000000 Z0 * Z139  ] = 0.000000
c183: [ 1.0000000000000000 Z0 * Z23 -1.0000000000000000 Z0 * Z110 -1.0000000000000000 Z0 * Z140  ] = 0.000000
c184: [ 1.0000000000000000 Z0 * Z24 -1.0000000000000000 Z0 * Z111 -1.0000000000000000 Z0 * Z141  ] = 0.000000
c185: [ 1.0000000000000000 Z0 * Z25 -1.0000000000000000 Z0 * Z112 -1.0000000000000000 Z0 * Z142  ] = 0.000000
c186: [ 1.0000000000000000 Z0 * Z26 -1.0000000000000000 Z0 * Z113 -1.0000000000000000 Z0 * Z143  ] = 0.000000
c187: [ 1.0000000000000000 Z0 * Z27 -1.0000000000000000 Z0 * Z114 -1.0000000000000000 Z0 * Z144  ] = 0.000000
c188: [ 1.0000000000000000 Z0 * Z28 -1.0000000000000000 Z0 * Z115 -1.0000000000000000 Z0 * Z145  ] = 0.000000
c189: [ 1.0000000000000000 Z0 * Z29 -1.0000000000000000 Z0 * Z116 -1.0000000000000000 Z0 * Z146  ] = 0.000000
c190: [ 1.0000000000000000 Z0 * Z30 -1.0000000000000000 Z0 * Z117 -1.0000000000000000 Z0 * Z147  ] = 0.000000
c191: [ 1.0000000000000000 Z0 * Z179  + 1.0000000000000000 Z0 * Z180  ] >= 1.000000
c192: [ 1.0000000000000000 Z0 * Z178  + 1.0000000000000000 Z0 * Z180  ] >= 1.000000
c193: [ 1.0000000000000000 Z0 * Z178  + 1.0000000000000000 Z0 * Z179  ] >= 1.000000
c194: [ 1.0000000000000000 Z0 * Z180  + 1.0000000000000000 Z0 * Z182  ] >= 1.000000
c195: [ 1.0000000000000000 Z0 * Z180  + 1.0000000000000000 Z0 * Z181  ] >= 1.000000
c196: [ 1.0000000000000000 Z0 * Z179  + 1.0000000000000000 Z0 * Z182  ] >= 1.000000
c197: [ 1.0000000000000000 Z0 * Z179  + 1.0000000000000000 Z0 * Z181  ] >= 1.000000
c198: [ 1.0000000000000000 Z0 * Z178  + 1.0000000000000000 Z0 * Z182  ] >= 1.000000
c199: [ 1.0000000000000000 Z0 * Z178  + 1.0000000000000000 Z0 * Z181  ] >= 1.000000
c200: [ 1.0000000000000000 Z0 * Z31 -5.9600000000000000 Z0 * Z178  ] >= 0.000000
c201: [ 1.0000000000000000 Z0 * Z32 -42.0933333333332982 Z0 * Z179  ] >= 0.000000
c202: [ 1.0000000000000000 Z0 * Z33 -99.2800000000000011 Z0 * Z180  ] >= 0.000000
c203: [ 1.0000000000000000 Z0 * Z34 -61.8666666666667027 Z0 * Z181  ] >= 0.000000
c204: [ 1.0000000000000000 Z0 * Z35 -56.2866666666666973 Z0 * Z182  ] >= 0.000000
c205: [ 1.0000000000000000 Z0 * Z36 -39.6133333333333013 Z0 * Z183  ] >= 0.000000
c206: [ 1.0000000000000000 Z0 * Z36 -41.5000000000000000 Z0 * Z184  ] >= 0.000000
c207: [ 1.0000000000000000 Z0 * Z37 -62.4933333333332968 Z0 * Z185  ] >= 0.000000
c208: [ 1.0000000000000000 Z0 * Z38 -62.2400000000000020 Z0 * Z186  ] >= 0.000000
c209: [ -1.0000000000000000 Z0 * Z69  + 1.0000000000000000 Z0 * Z148  ] <= 0.000000
c210: [ -1.0000000000000000 Z0 * Z69  + 1.0000000000000000 Z0 * Z149  ] <= 0.000000
c211: [ -1.0000000000000000 Z0 * Z70  + 1.0000000000000000 Z0 * Z150  ] <= 0.000000
c212: [ -1.0000000000000000 Z0 * Z70  + 1.0000000000000000 Z0 * Z151  ] <= 0.000000
c213: [ -1.0000000000000000 Z0 * Z71  + 1.0000000000000000 Z0 * Z152  ] <= 0.000000
c214: [ -1.0000000000000000 Z0 * Z71  + 1.0000000000000000 Z0 * Z153  ] <= 0.000000
c215: [ -1.0000000000000000 Z0 * Z72  + 1.0000000000000000 Z0 * Z154  ] <= 0.000000
c216: [ -1.0000000000000000 Z0 * Z72  + 1.0000000000000000 Z0 * Z155  ] <= 0.000000
c217: [ -1.0000000000000000 Z0 * Z73  + 1.0000000000000000 Z0 * Z156  ] <= 0.000000
c218: [ -1.0000000000000000 Z0 * Z73  + 1.0000000000000000 Z0 * Z157  ] <= 0.000000
c219: [ -1.0000000000000000 Z0 * Z74  + 1.0000000000000000 Z0 * Z158  ] <= 0.000000
c220: [ -1.0000000000000000 Z0 * Z74  + 1.0000000000000000 Z0 * Z159  ] <= 0.000000
c221: [ -1.0000000000000000 Z0 * Z75  + 1.0000000000000000 Z0 * Z160  ] <= 0.000000
c222: [ -1.0000000000000000 Z0 * Z75  + 1.0000000000000000 Z0 * Z161  ] <= 0.000000
c223: [ -1.0000000000000000 Z0 * Z76  + 1.0000000000000000 Z0 * Z162  ] <= 0.000000
c224: [ -1.0000000000000000 Z0 * Z76  + 1.0000000000000000 Z0 * Z163  ] <= 0.000000
c225: [ -1.0000000000000000 Z0 * Z77  + 1.0000000000000000 Z0 * Z164  ] <= 0.000000
c226: [ -1.0000000000000000 Z0 * Z77  + 1.0000000000000000 Z0 * Z165  ] <= 0.000000
c227: [ -1.0000000000000000 Z0 * Z78  + 1.0000000000000000 Z0 * Z166  ] <= 0.000000
c228: [ -1.0000000000000000 Z0 * Z78  + 1.0000000000000000 Z0 * Z167  ] <= 0.000000
c229: [ -1.0000000000000000 Z0 * Z79  + 1.0000000000000000 Z0 * Z168  ] <= 0.000000
c230: [ -1.0000000000000000 Z0 * Z79  + 1.0000000000000000 Z0 * Z169  ] <= 0.000000
c231: [ -1.0000000000000000 Z0 * Z80  + 1.0000000000000000 Z0 * Z170  ] <= 0.000000
c232: [ -1.0000000000000000 Z0 * Z80  + 1.0000000000000000 Z0 * Z171  ] <= 0.000000
c233: [ -1.0000000000000000 Z0 * Z81  + 1.0000000000000000 Z0 * Z172  ] <= 0.000000
c234: [ -1.0000000000000000 Z0 * Z81  + 1.0000000000000000 Z0 * Z173  ] <= 0.000000
c235: [ -1.0000000000000000 Z0 * Z82  + 1.0000000000000000 Z0 * Z174  ] <= 0.000000
c236: [ -1.0000000000000000 Z0 * Z82  + 1.0000000000000000 Z0 * Z175  ] <= 0.000000
c237: [ -1.0000000000000000 Z0 * Z83  + 1.0000000000000000 Z0 * Z176  ] <= 0.000000
c238: [ -1.0000000000000000 Z0 * Z83  + 1.0000000000000000 Z0 * Z177  ] <= 0.000000
c239: [ 1.0000000000000000 Z0 * Z183 -1.0000000000000000 Z0 * Z184  ] >= 0.000000
c240: [ 1.0000000000000000 Z0 * Z86 -1.0000000000000000 Z0 * Z87  ] >= 0.000000
ac1: Z0 - 1 = 0
ac2: [ 1.0000000000000000 Z0 * Z188 -1.0000000000000000 Z7 * Z31  ] = 0
ac3: [ 1.0000000000000000 Z0 * Z189 -1.0000000000000000 Z8 * Z31  ] = 0
ac4: [ 1.0000000000000000 Z7 * Z189 -1.0000000000000000 Z8 * Z188  ] = 0
ac5: [ 1.0000000000000000 Z0 * Z190 -1.0000000000000000 Z9 * Z32  ] = 0
ac6: [ 1.0000000000000000 Z0 * Z191 -1.0000000000000000 Z10 * Z32  ] = 0
ac7: [ 1.0000000000000000 Z9 * Z191 -1.0000000000000000 Z10 * Z190  ] = 0
ac8: [ 1.0000000000000000 Z0 * Z192 -1.0000000000000000 Z11 * Z33  ] = 0
ac9: [ 1.0000000000000000 Z0 * Z193 -1.0000000000000000 Z12 * Z33  ] = 0
ac10: [ 1.0000000000000000 Z11 * Z193 -1.0000000000000000 Z12 * Z192  ] = 0
ac11: [ 1.0000000000000000 Z0 * Z194 -1.0000000000000000 Z15 * Z34  ] = 0
ac12: [ 1.0000000000000000 Z0 * Z195 -1.0000000000000000 Z16 * Z34  ] = 0
ac13: [ 1.0000000000000000 Z15 * Z195 -1.0000000000000000 Z16 * Z194  ] = 0
ac14: [ 1.0000000000000000 Z0 * Z196 -1.0000000000000000 Z17 * Z35  ] = 0
ac15: [ 1.0000000000000000 Z0 * Z197 -1.0000000000000000 Z18 * Z35  ] = 0
ac16: [ 1.0000000000000000 Z17 * Z197 -1.0000000000000000 Z18 * Z196  ] = 0
ac17: [ 1.0000000000000000 Z0 * Z198 -1.0000000000000000 Z19 * Z36  ] = 0
ac18: [ 1.0000000000000000 Z0 * Z199 -1.0000000000000000 Z20 * Z36  ] = 0
ac19: [ 1.0000000000000000 Z19 * Z199 -1.0000000000000000 Z20 * Z198  ] = 0
ac20: [ 1.0000000000000000 Z0 * Z200 -1.0000000000000000 Z21 * Z37  ] = 0
ac21: [ 1.0000000000000000 Z0 * Z201 -1.0000000000000000 Z22 * Z37  ] = 0
ac22: [ 1.0000000000000000 Z21 * Z201 -1.0000000000000000 Z22 * Z200  ] = 0
ac23: [ 1.0000000000000000 Z0 * Z202 -1.0000000000000000 Z29 * Z38  ] = 0
ac24: [ 1.0000000000000000 Z0 * Z203 -1.0000000000000000 Z30 * Z38  ] = 0
ac25: [ 1.0000000000000000 Z29 * Z203 -1.0000000000000000 Z30 * Z202  ] = 0
Bounds
1 <= Z0 <= 1
0.0000000000000000 <= Z1 <= 0.2635188300000000
0.0000000000000000 <= Z2 <= 0.2635188300000000
0.0000000000000000 <= Z3 <= 0.2289157400000000
0.0000000000000000 <= Z4 <= 0.2289157400000000
0.0000000000000000 <= Z5 <= 0.2146483500000000
0.0000000000000000 <= Z6 <= 0.2146483500000000
0.0000000000000000 <= Z7 <= 0.1796441400000000
0.0000000000000000 <= Z8 <= 0.1796441400000000
0.0000000000000000 <= Z9 <= 0.1740284300000000
0.0000000000000000 <= Z10 <= 0.1740284300000000
0.0000000000000000 <= Z11 <= 0.1535596200000000
0.0000000000000000 <= Z12 <= 0.1535596200000000
0.0000000000000000 <= Z13 <= 0.1942283000000000
0.0000000000000000 <= Z14 <= 0.1942283000000000
0.0000000000000000 <= Z15 <= 0.2567055500000000
0.0000000000000000 <= Z16 <= 0.2567055500000000
0.0000000000000000 <= Z17 <= 0.2708861900000000
0.0000000000000000 <= Z18 <= 0.2708861900000000
0.0000000000000000 <= Z19 <= 0.2898567500000000
0.0000000000000000 <= Z20 <= 0.2898567500000000
0.0000000000000000 <= Z21 <= 0.2555030300000000
0.0000000000000000 <= Z22 <= 0.2555030300000000
0.0000000000000000 <= Z23 <= 0.1900172600000000
0.0000000000000000 <= Z24 <= 0.1900172600000000
0.0000000000000000 <= Z25 <= 0.2380314300000000
0.0000000000000000 <= Z26 <= 0.2380314300000000
0.0000000000000000 <= Z27 <= 0.2331296200000000
0.0000000000000000 <= Z28 <= 0.2331296200000000
0.0000000000000000 <= Z29 <= 0.2770530700000000
0.0000000000000000 <= Z30 <= 0.2770530700000000
5.6799999999999997 <= Z31 <= 5.9600000000000000
40.1799999999999997 <= Z32 <= 42.0933333333332982
94.7666666666666941 <= Z33 <= 99.2800000000000011
59.0533333333332990 <= Z34 <= 61.8666666666667027
53.7333333333332988 <= Z35 <= 56.2866666666666973
37.7266666666667021 <= Z36 <= 41.5000000000000000
59.6466666666666967 <= Z37 <= 62.4933333333332968
59.2733333333332979 <= Z38 <= 62.2400000000000020
0.0000000000000000 <= Z39 <= 1.0000000000000000
0.0000000000000000 <= Z40 <= 1.0000000000000000
0.0000000000000000 <= Z41 <= 1.0000000000000000
0.0000000000000000 <= Z42 <= 1.0000000000000000
0.0000000000000000 <= Z43 <= 1.0000000000000000
0.0000000000000000 <= Z44 <= 1.0000000000000000
0.0000000000000000 <= Z45 <= 1.0000000000000000
0.0000000000000000 <= Z46 <= 1.0000000000000000
0.0000000000000000 <= Z47 <= 1.0000000000000000
0.0000000000000000 <= Z48 <= 1.0000000000000000
0.0000000000000000 <= Z49 <= 1.0000000000000000
0.0000000000000000 <= Z50 <= 1.0000000000000000
0.0000000000000000 <= Z51 <= 1.0000000000000000
0.0000000000000000 <= Z52 <= 1.0000000000000000
0.0000000000000000 <= Z53 <= 1.0000000000000000
0.0000000000000000 <= Z54 <= 1.0000000000000000
0.0000000000000000 <= Z55 <= 1.0000000000000000
0.0000000000000000 <= Z56 <= 1.0000000000000000
0.0000000000000000 <= Z57 <= 1.0000000000000000
0.0000000000000000 <= Z58 <= 1.0000000000000000
0.0000000000000000 <= Z59 <= 1.0000000000000000
0.0000000000000000 <= Z60 <= 1.0000000000000000
0.0000000000000000 <= Z61 <= 1.0000000000000000
0.0000000000000000 <= Z62 <= 1.0000000000000000
0.0000000000000000 <= Z63 <= 1.0000000000000000
0.0000000000000000 <= Z64 <= 1.0000000000000000
0.0000000000000000 <= Z65 <= 1.0000000000000000
0.0000000000000000 <= Z66 <= 1.0000000000000000
0.0000000000000000 <= Z67 <= 1.0000000000000000
0.0000000000000000 <= Z68 <= 1.0000000000000000
0.0000000000000000 <= Z69 <= 0.5323080366000000
0.0000000000000000 <= Z70 <= 0.9187151698666660
0.0000000000000000 <= Z71 <= 1.0217261460000000
0.0000000000000000 <= Z72 <= 1.0706790744000001
0.0000000000000000 <= Z73 <= 7.3254367134666696
0.0000000000000000 <= Z74 <= 15.2453990735999998
0.0000000000000000 <= Z75 <= 1.2806119246666701
0.0000000000000000 <= Z76 <= 15.8815166933332996
0.0000000000000000 <= Z77 <= 15.2472806811333008
0.0000000000000000 <= Z78 <= 12.0290551249999993
0.0000000000000000 <= Z79 <= 15.9672360214667002
0.0000000000000000 <= Z80 <= 15.3736631157333008
0.0000000000000000 <= Z81 <= 6.2237284563999999
0.0000000000000000 <= Z82 <= 8.8589255599999994
0.0000000000000000 <= Z83 <= 17.2437830767999998
0.2578896900000000 <= Z84 <= 0.3522708700000000
0.2578896900000000 <= Z85 <= 0.3522708700000000
-0.9849362800000000 <= Z86 <= -0.7794470999999999
-0.9849362800000000 <= Z87 <= -0.7794470999999999
0.0000000000000000 <= Z88 <= 0.0580296499999999
0.0000000000000000 <= Z89 <= 0.0580296499999999
0.0000000000000000 <= Z90 <= 0.0546689399999999
0.0000000000000000 <= Z91 <= 0.0546689399999999
0.0000000000000000 <= Z92 <= 0.0936056500000000
0.0000000000000000 <= Z93 <= 0.0936056500000000
0.0000000000000000 <= Z94 <= 0.0476880399999999
0.0000000000000000 <= Z95 <= 0.0476880399999999
0.0000000000000000 <= Z96 <= 0.0527602100000000
0.0000000000000000 <= Z97 <= 0.0527602100000000
0.0000000000000000 <= Z98 <= 0.0490538800000000
0.0000000000000000 <= Z99 <= 0.0490538800000000
0.0000000000000000 <= Z100 <= 0.0773169200000000
0.0000000000000000 <= Z101 <= 0.0773169200000000
0.0000000000000000 <= Z102 <= 0.0821174100000000
0.0000000000000000 <= Z103 <= 0.0821174100000000
0.0000000000000000 <= Z104 <= 0.0943811800000000
0.0000000000000000 <= Z105 <= 0.0943811800000000
0.0000000000000000 <= Z106 <= 0.0843675700000000
0.0000000000000000 <= Z107 <= 0.0843675700000000
0.0000000000000000 <= Z108 <= 0.0698759700000000
0.0000000000000000 <= Z109 <= 0.0698759700000000
0.0000000000000000 <= Z110 <= 0.0478883100000000
0.0000000000000000 <= Z111 <= 0.0478883100000000
0.0000000000000000 <= Z112 <= 0.0668875099999999
0.0000000000000000 <= Z113 <= 0.0668875099999999
0.0000000000000000 <= Z114 <= 0.0727651200000000
0.0000000000000000 <= Z115 <= 0.0727651200000000
0.0000000000000000 <= Z116 <= 0.0943811800000000
0.0000000000000000 <= Z117 <= 0.0943811800000000
0.0000000000000000 <= Z118 <= 0.2054891800000000
0.0000000000000000 <= Z119 <= 0.2054891800000000
0.0000000000000000 <= Z120 <= 0.1742468000000000
0.0000000000000000 <= Z121 <= 0.1742468000000000
0.0000000000000000 <= Z122 <= 0.1210427000000000
0.0000000000000000 <= Z123 <= 0.1210427000000000
0.0000000000000000 <= Z124 <= 0.1319561000000000
0.0000000000000000 <= Z125 <= 0.1319561000000000
0.0000000000000000 <= Z126 <= 0.1212682200000000
0.0000000000000000 <= Z127 <= 0.1212682200000000
0.0000000000000000 <= Z128 <= 0.1045057400000000
0.0000000000000000 <= Z129 <= 0.1045057400000000
0.0000000000000000 <= Z130 <= 0.1169113800000000
0.0000000000000000 <= Z131 <= 0.1169113800000000
0.0000000000000000 <= Z132 <= 0.1745881400000000
0.0000000000000000 <= Z133 <= 0.1745881400000000
0.0000000000000000 <= Z134 <= 0.1765050100000000
0.0000000000000000 <= Z135 <= 0.1765050100000000
0.0000000000000000 <= Z136 <= 0.2054891800000000
0.0000000000000000 <= Z137 <= 0.2054891800000000
0.0000000000000000 <= Z138 <= 0.1856270600000000
0.0000000000000000 <= Z139 <= 0.1856270600000000
0.0000000000000000 <= Z140 <= 0.1421289500000000
0.0000000000000000 <= Z141 <= 0.1421289500000000
0.0000000000000000 <= Z142 <= 0.1711439200000000
0.0000000000000000 <= Z143 <= 0.1711439200000000
0.0000000000000000 <= Z144 <= 0.1603645000000000
0.0000000000000000 <= Z145 <= 0.1603645000000000
0.0000000000000000 <= Z146 <= 0.1826718900000000
0.0000000000000000 <= Z147 <= 0.1826718900000000
0.0000000000000000 <= Z148 <= 0.5323080366000000
0.0000000000000000 <= Z149 <= 0.5323080366000000
0.0000000000000000 <= Z150 <= 0.9187151698666660
0.0000000000000000 <= Z151 <= 0.9187151698666660
0.0000000000000000 <= Z152 <= 1.0217261460000000
0.0000000000000000 <= Z153 <= 1.0217261460000000
0.0000000000000000 <= Z154 <= 1.0706790744000001
0.0000000000000000 <= Z155 <= 1.0706790744000001
0.0000000000000000 <= Z156 <= 7.3254367134666696
0.0000000000000000 <= Z157 <= 7.3254367134666696
0.0000000000000000 <= Z158 <= 15.2453990735999998
0.0000000000000000 <= Z159 <= 15.2453990735999998
0.0000000000000000 <= Z160 <= 1.2806119246666701
0.0000000000000000 <= Z161 <= 1.2806119246666701
0.0000000000000000 <= Z162 <= 15.8815166933332996
0.0000000000000000 <= Z163 <= 15.8815166933332996
0.0000000000000000 <= Z164 <= 15.2472806811333008
0.0000000000000000 <= Z165 <= 15.2472806811333008
0.0000000000000000 <= Z166 <= 12.0290551249999993
0.0000000000000000 <= Z167 <= 12.0290551249999993
0.0000000000000000 <= Z168 <= 15.9672360214667002
0.0000000000000000 <= Z169 <= 15.9672360214667002
0.0000000000000000 <= Z170 <= 15.3736631157333008
0.0000000000000000 <= Z171 <= 15.3736631157333008
0.0000000000000000 <= Z172 <= 6.2237284563999999
0.0000000000000000 <= Z173 <= 6.2237284563999999
0.0000000000000000 <= Z174 <= 8.8589255599999994
0.0000000000000000 <= Z175 <= 8.8589255599999994
0.0000000000000000 <= Z176 <= 17.2437830767999998
0.0000000000000000 <= Z177 <= 17.2437830767999998
0.0000000000000000 <= Z178 <= 1.0000000000000000
0.0000000000000000 <= Z179 <= 1.0000000000000000
0.0000000000000000 <= Z180 <= 1.0000000000000000
0.0000000000000000 <= Z181 <= 1.0000000000000000
0.0000000000000000 <= Z182 <= 1.0000000000000000
0.0000000000000000 <= Z183 <= 1.0000000000000000
0.0000000000000000 <= Z184 <= 1.0000000000000000
0.0000000000000000 <= Z185 <= 1.0000000000000000
0.0000000000000000 <= Z186 <= 1.0000000000000000
-100000000.0000000000000000 <= Z187 <= 100000000.0000000000000000
0.0000000000000000 <= Z188 <= 1.0706790744000001
0.0000000000000000 <= Z189 <= 1.0706790744000001
0.0000000000000000 <= Z190 <= 7.3254367134666616
0.0000000000000000 <= Z191 <= 7.3254367134666616
0.0000000000000000 <= Z192 <= 15.2453990736000016
0.0000000000000000 <= Z193 <= 15.2453990736000016
0.0000000000000000 <= Z194 <= 15.8815166933333440
0.0000000000000000 <= Z195 <= 15.8815166933333440
0.0000000000000000 <= Z196 <= 15.2472806811333434
0.0000000000000000 <= Z197 <= 15.2472806811333434
0.0000000000000000 <= Z198 <= 12.0290551250000011
0.0000000000000000 <= Z199 <= 12.0290551250000011
0.0000000000000000 <= Z200 <= 15.9672360214666593
0.0000000000000000 <= Z201 <= 15.9672360214666593
0.0000000000000000 <= Z202 <= 17.2437830768000033
0.0000000000000000 <= Z203 <= 17.2437830768000033
Binaries
Z39 Z40 Z41 Z42 Z43 Z44 Z45 Z46 Z47 Z48 Z49 Z50 Z51 Z52 Z53 Z54 Z55 Z56 Z57 Z58 Z59 Z60 Z61 Z62 Z63 Z64 Z65 Z66 Z67 Z68 Z178 Z179 Z180 Z181 Z182 Z183 Z184 Z185 Z186 
End